5	4
3	3	4	22	3	20	2	26	3	1	20	2	18	4	18	3	2	14	4	18	3	12
3	3	3	24	1	20	4	22	3	2	20	4	22	3	18	3	4	16	3	18	2	20
4	3	2	14	4	20	3	18	3	3	20	2	18	1	22	3	1	18	3	16	4	14	3	3	16	1	14	2	14
4	3	2	14	3	18	1	16	3	4	16	2	12	3	18	3	1	24	4	20	2	18	3	2	12	1	16	4	12
5	3	1	18	3	16	2	16	3	2	14	4	16	3	16	3	4	16	3	20	1	18	3	2	20	1	18	3	16	3	3	16	2	14	4	18
0	3	4	5	6
6	0	3	4	5
5	3	0	3	4
4	4	3	0	3
3	5	4	3	0
